#######################################
### Exact MIP solver for the HHCRSP ###
#######################################
-- Instance file: new-instances/HHCRSP_25_5_11_0.4_R_C.txt
-- Max threads: 4
-- Time limit: 999999 seconds
-- Use initial solution: No
Trivial flow violations prevented generating 672 variables.
Model exported.
Version identifier: 20.1.0.0 | 2020-11-10 | 9bedb6d68
CPXPARAM_Threads                                 4
CPXPARAM_TimeLimit                               999999
Tried aggregator 1 time.
LP Presolve eliminated 432 rows and 143 columns.
Reduced LP has 1498 rows, 1479 columns, and 9580 nonzeros.
Presolve time = 0.01 sec. (3.17 ticks)
Symmetry aggregator did 1152 additional substitutions.

Iteration log . . .
Iteration:     1   Dual objective     =             0.000000

Dual crossover.
  Dual:  Fixing 17 variables.
       16 DMoves:  Infeasibility  1.24344979e-14  Objective  9.20002467e+01
        0 DMoves:  Infeasibility  1.17683641e-14  Objective  9.20002467e+01
  Dual:  Pushed 2, exchanged 15.
  Primal:  Fixing 11 variables.
       10 PMoves:  Infeasibility  0.00000000e+00  Objective  9.20002467e+01
        0 PMoves:  Infeasibility  0.00000000e+00  Objective  9.20002467e+01
  Primal:  Pushed 1, exchanged 10.

Solution status from MIP model:
-- Processing time: 0.009 sec.
-- Memory used: 15.0986 MB
-- Best bound: inf
-- Obj value: 92.0002
-- Gap: inf%
-- Total distance: 276.001
-- Total tardiness: 0
-- Largest tardiness: 0
